RAW/XX/fspd/X-n167-k10.vrp_seed-1.out
14184	17.832	29.444
