RAW/XX/fspd/X-n167-k10.vrp_seed-1.sol
Route #1: 5 86 44 121 79 30 92 55 38 151 131 4 160 149 21 60 132 154 139 23 76 54 87 63 99
Route #2: 103 152 42 3 130 143 71 113 158 75 109 16 2 29 28 32 72 53 112 59 95 120 82 142 19 50 100 102 108 27 101 36 105 80 124
Route #3: 67 134 140 119 52 14 85 156 125 66 43 117 147 20 90 166 33 74 41 138 78 165 26 35 123 62 162 68 48 9 157 7 6 89
Route #4: 46 15 159 17 96 115 97 148 116 153 8 114 136 37 84 10 51 146 39 11 141 70 133 24 31 40 135 150 98 45 81 164 34 65 110 18 144
Route #5: 128 129 145 163 88 111 122 1 13 77 57 12 104 64 107 49 91 161 94 106 61 58 56 155 127 126 47 118 93 25 73 22 69 83 137
Cost 14184.000000